c description: Random 3-CNF over 22 variables and 94 clauses
c generator: CNFgen (0.9.2)
c copyright: (C) 2012-2022 Massimo Lauria <massimo.lauria@uniroma1.it>
c url: https://massimolauria.net/cnfgen
c command line: cnfgen --output CNF_4.28/22_bit_94_653.cnf randkcnf 3 22 94
c
p cnf 22 94
-2 5 10 0
-10 -15 -17 0
5 15 20 0
17 -21 -22 0
-8 9 17 0
-15 16 17 0
-5 7 -8 0
1 7 17 0
-1 7 -15 0
1 -11 20 0
-2 -3 9 0
-1 -3 17 0
1 -11 15 0
14 18 -21 0
-2 14 -19 0
12 18 21 0
2 -9 15 0
-2 6 19 0
9 -16 20 0
2 -8 -20 0
7 -12 21 0
13 18 -20 0
8 11 -12 0
-8 -13 19 0
12 14 20 0
2 19 -22 0
-1 8 -12 0
5 -6 -20 0
8 11 -19 0
6 7 14 0
13 16 19 0
3 -4 18 0
4 7 11 0
-6 16 -22 0
-7 -13 -17 0
-5 19 -22 0
-1 9 -21 0
-9 12 13 0
2 -7 -20 0
5 -8 15 0
5 9 -11 0
-4 -14 19 0
12 -16 17 0
-12 13 17 0
-13 14 -17 0
-4 -15 -22 0
3 -12 -16 0
-3 16 17 0
-1 -19 -22 0
-1 -12 20 0
4 -7 -20 0
-1 -5 -12 0
-2 6 13 0
6 -13 21 0
-1 -3 7 0
1 -3 16 0
-3 4 21 0
-1 -2 -16 0
-12 17 18 0
13 -15 -22 0
-3 -12 21 0
-3 7 -16 0
-1 5 -17 0
8 -12 19 0
-3 8 18 0
-1 -2 -4 0
-8 -10 -19 0
7 -8 -18 0
5 7 -22 0
7 -8 14 0
8 11 -15 0
2 -15 -19 0
-7 8 -16 0
-7 -12 19 0
-4 -12 16 0
-6 -8 -13 0
3 6 13 0
-8 -15 22 0
14 -15 -21 0
-6 -10 -17 0
-1 -15 -21 0
-8 -11 22 0
-3 12 -19 0
3 8 -20 0
5 11 -20 0
-13 14 17 0
-2 5 19 0
3 8 19 0
-12 16 -20 0
-6 -12 -13 0
4 -12 -22 0
-8 16 -20 0
-7 -11 -19 0
11 12 -21 0
